InboundTrucks  = 12;
OutboundTrucks = 8;
InboundDoors   = 4;
OutboundDoors  = 4;
ReleaseTime    = [74,108,24,116,69,118,45,59,6,84,64,27];
UnloadTime     = [24,28,41,23,31,38,14,26,22,20,15,38];
LoadTime       = [29,22,16,11,20,30,15,12];
TransferTime   = [| 0,35,37,0,0,37,39,29 | 23,17,49,0,27,35,0,24 | 37,14,35,36,10,39,23,44 | 16,32,0,33,33,10,26,0 | 19,0,37,21,27,14,19,0 | 33,0,40,20,41,42,29,21 | 43,10,15,14,12,0,32,0 | 38,17,49,0,39,50,18,21 | 22,45,38,0,15,19,29,31 | 34,0,0,45,45,32,39,0 | 0,27,30,15,27,0,0,0 | 23,37,0,0,30,25,0,27 |];
